CMD:
./solvers/bin/cadical --plain --no-reduce -t 1600 ./data/cnfs//beembrptwo6b1/beembrptwo6b1.97.cnf

c --- [ banner ] -------------------------------------------------------------
c 
c CaDiCaL SAT Solver
c Copyright (c) 2016-2024
c A. Biere, M. Fleury, N. Froleyks, K. Fazekas, F. Pollitt, T. Faller
c JKU Linz, University of Freiburg, TU Wien
c 
c Version 2.1.3 5296d3d2a9bf48c154ab2acb5e44625776d821bf
c g++ (Gentoo 12.3.1_p20230526 p2) 12.3.1 20230526 -Wall -Wextra -O3 -DNDEBUG
c Sat Aug 9 07:26:21 PDT 2025 Linux cedar2.int.cedar.computecanada.ca 5.14.0-362.24.2.el9_3.x86_64 x86_64
c 
c --- [ limit ] --------------------------------------------------------------
c 
c setting time limit to 1600 seconds real time (due to '-t 1600')
c 
c --- [ parsing input ] ------------------------------------------------------
c 
c reading DIMACS file from './data/cnfs//beembrptwo6b1/beembrptwo6b1.97.cnf'
c opening file to read './data/cnfs//beembrptwo6b1/beembrptwo6b1.97.cnf'
c found 'p cnf 407908 1146828' header
c parsed 1146828 clauses in 0.20 seconds process time
c 
c --- [ options ] ------------------------------------------------------------
c 
c   --compact=false                (different from default 'true')
c   --decompose=false              (different from default 'true')
c   --deduplicate=false            (different from default 'true')
c   --elim=false                   (different from default 'true')
c   --probe=false                  (different from default 'true')
c   --reduce=false                 (different from default 'true')
c   --subsume=false                (different from default 'true')
c   --ternary=false                (different from default 'true')
c   --transred=false               (different from default 'true')
c   --vivify=false                 (different from default 'true')
c 
c --- [ solving ] ------------------------------------------------------------
c 
c time measured in process time since initialization
c 
c  seconds   reductions  redundant   irredundant
c          MB    restarts       trail        variables
c           level   conflicts       glue           remaining
c 
c *  0.20 187  0 0   0    0    0  0% 0 1145003 234704 58%
c {  0.22 188  0 0   0    0    0  0% 0 1145003 234704 58%
c i  0.33 190 148 0  17  276  246 52% 3 1145003 234411 57%
c i  0.33 190 133 0  17  313  279 52% 3 1145003 234294 57%
c i  0.33 190 126 0  17  339  303 51% 3 1145003 234263 57%
c i  0.34 190 115 0  17  382  343 51% 3 1145003 234125 57%
c i  0.34 190 110 0  21  404  363 51% 3 1145003 233789 57%
c i  0.56 190 77 0  51  659  597 54% 3 1145003 233715 57%
c i  0.57 191 74 0  57  693  625 54% 3 1145003 233682 57%
c i  0.57 191 74 0  57  695  626 54% 3 1145003 233282 57%
c i  0.57 191 74 0  58  696  626 54% 3 1145003 233261 57%
c i  0.57 191 73 0  58  698  627 54% 3 1145003 233258 57%
c i  0.57 191 73 0  58  699  627 54% 3 1145003 233241 57%
c i  0.57 191 73 0  58  701  628 54% 3 1145003 233238 57%
c i  0.57 191 73 0  58  702  628 54% 3 1145003 233193 57%
c i  0.60 191 71 0  62  741  662 53% 3 1145003 233158 57%
c i  0.60 191 69 0  62  771  688 53% 3 1145003 233129 57%
c i  0.60 191 66 0  62  802  713 53% 3 1145003 233102 57%
c i  0.60 191 66 0  62  813  717 52% 3 1145003 233018 57%
c i  0.60 191 66 0  62  815  717 52% 3 1145003 233007 57%
c 
c  seconds   reductions  redundant   irredundant
c          MB    restarts       trail        variables
c           level   conflicts       glue           remaining
c 
c i  0.60 191 65 0  62  822  723 52% 3 1145003 232889 57%
c i  0.60 191 65 0  62  830  729 52% 3 1145003 232864 57%
c }  0.64 191 60 0  68 1001  878 52% 3 1145003 232864 57%
c [  0.64 191  0 0  68 1001  878  0% 0 1145003 232864 57%
c O  0.65 191 106 0  68 1002  879 53% 5 1145003 232864 57%
c i  0.73 191 107 0  68 1219 1092 63% 1 1145003 232777 57%
c i  0.74 191 117 0  68 1228 1098 63% 1 1145003 232770 57%
c i  0.74 191 121 0  68 1232 1101 63% 1 1145003 232769 57%
c i  0.74 191 130 0  68 1246 1108 62% 1 1145003 232737 57%
c i  0.74 191 140 0  68 1259 1119 62% 1 1145003 232735 57%
c i  0.74 191 147 0  68 1270 1127 62% 1 1145003 232733 57%
c i  0.74 191 152 0  68 1279 1131 61% 1 1145003 232729 57%
c i  0.74 191 153 0  68 1280 1131 61% 1 1145003 232728 57%
c i  0.74 191 154 0  68 1282 1132 61% 1 1145003 232720 57%
c i  0.74 191 158 0  68 1290 1139 61% 1 1145003 232709 57%
c i  0.74 191 159 0  68 1292 1140 61% 1 1145003 232707 57%
c i  0.74 191 173 0  68 1322 1167 60% 1 1145003 232695 57%
c i  0.75 191 174 0  68 1326 1170 60% 1 1145003 232694 57%
c i  0.75 191 175 0  68 1328 1170 60% 1 1145003 232679 57%
c i  0.75 191 176 0  68 1332 1172 60% 1 1145003 232675 57%
c 
c  seconds    reductions  redundant   irredundant
c          MB     restarts       trail        variables
c            level   conflicts       glue           remaining
c 
c i  0.75 191 179 0  68 1345 1182 60% 1 1145003 232666 57%
c i  0.75 191 180 0  68 1351 1186 60% 1 1145003 232663 57%
c i  0.75 191 183 0  68 1367 1193 59% 1 1145003 232660 57%
c i  0.76 191 189 0  68 1403 1225 59% 1 1145003 232653 57%
... skipped 687 lines ...
c i 22.13 222 50 0 2424 68420 58300 56% 5 582267 179370 44%
c i 22.14 222 50 0 2430 68470 58344 56% 5 582267 179349 44%
c i 22.18 222 50 0 2431 68614 58470 56% 5 582267 179269 44%
c i 22.20 222 50 0 2431 68653 58504 56% 5 582267 177999 44%
c 
c  seconds   reductions     redundant  irredundant
c          MB    restarts          trail       variables
c           level     conflicts        glue          remaining
c 
c i 22.22 222 50 0 2442 68726 58555 56% 5 582267 177976 44%
c i 22.23 222 50 0 2444 68734 58561 56% 5 582267 177967 44%
c i 22.23 222 50 0 2444 68735 58561 56% 5 582267 177959 44%
c i 22.23 222 50 0 2444 68736 58561 56% 5 582267 177942 44%
c i 22.23 222 50 0 2447 68748 58569 56% 5 582267 177906 44%
c i 22.24 222 49 0 2447 68798 58613 56% 5 582267 166287 41%
c i 22.24 222 49 0 2447 68808 58616 56% 5 582267 166279 41%
c i 22.33 222 49 0 2463 68927 58716 56% 5 582267 166265 41%
c i 22.34 222 49 0 2464 68942 58717 56% 5 582267 166264 41%
c i 22.34 222 49 0 2469 68986 58748 56% 5 582267 166243 41%
c i 22.35 222 49 0 2469 69014 58767 56% 5 582267 166236 41%
c i 22.35 222 49 0 2469 69015 58767 56% 5 582267 166230 41%
c i 22.36 222 49 0 2469 69058 58795 56% 5 582267 166207 41%
c i 22.46 222 49 0 2469 69235 58937 56% 5 582267 165930 41%
c i 22.50 222 49 0 2471 69391 59052 56% 5 582267 165928 41%
c i 22.50 222 49 0 2471 69397 59054 56% 5 582267 164498 40%
c i 22.50 222 49 0 2471 69407 59063 56% 5 582267 164180 40%
c i 22.50 222 49 0 2471 69408 59063 56% 5 582267 164179 40%
c i 22.50 222 49 0 2471 69412 59065 56% 5 582267 163803 40%
c i 22.50 222 49 0 2471 69413 59065 56% 5 582267 163605 40%
c 
c  seconds   reductions     redundant  irredundant
c          MB    restarts          trail       variables
c           level     conflicts        glue          remaining
c 
c i 22.50 222 49 0 2471 69417 59068 56% 5 582267 163509 40%
c i 22.50 222 49 0 2471 69420 59070 56% 5 582267 163086 40%
c i 22.50 222 49 0 2471 69421 59070 56% 5 582267 162958 40%
c i 22.50 222 49 0 2471 69422 59070 56% 5 582267 162862 40%
c i 22.51 222 49 0 2471 69433 59079 56% 5 582267 162861 40%
c i 22.51 222 49 0 2471 69437 59081 56% 5 582267 161170 40%
c i 22.51 222 49 0 2471 69467 59104 56% 5 582267 161163 40%
c i 22.52 222 49 0 2471 69526 59138 56% 5 582267 161136 40%
c i 22.52 222 48 0 2471 69552 59157 56% 5 582267 161131 40%
c i 22.52 222 48 0 2471 69553 59157 56% 5 582267 161098 39%
c } 22.52 222 48 0 2471 69568 59166 56% 5 582267 155151 38%
c 0 22.52 222 48 0 2471 69568 59166 56% 5 582267 155151 38%
c 
c --- [ result ] -------------------------------------------------------------
c 
s UNSATISFIABLE
c 
c --- [ run-time profiling ] -------------------------------------------------
c 
c process time taken by individual solving procedures
c (percentage relative to process time for solving)
c 
c        22.32  100.00% search
c        10.93   48.97% unstable
c        10.85   48.60% stable
c         0.53    2.35% walk
c         0.20    0.90% parse
c         0.02    0.08% lucky
c         0.00    0.00% simplify
c   =================================
c        22.32   99.11% solve
c 
c last line shows process time for solving
c (percentage relative to total process time)
c 
c --- [ statistics ] ---------------------------------------------------------
c 
c chronological:             29764        42.78 %  of conflicts
c conflicts:                 69568      3116.31    per second
c decisions:                242889     10880.25    per second
c fixed:                    252757        61.96 %  of all variables
c learned:                   66236        95.21 %  per conflict
c learned_lits:            3197794       100.00 %  learned literals
c minimized:                     0         0.00 %  learned literals
c shrunken:                 470201        14.70 %  learned literals
c minishrunken:             487644        15.25 %  learned literals
c otfs:                        647         0.93 %  of conflict
c propagations:          282352079        12.65 M  per second
c rephased:                     11      6324.36    interval
c restarts:                   2471        28.15    interval
c stabilizing:                   3        60.37 %  of conflicts
c subsumed:                   3538         0.29 %  of all clauses
c strengthened:                641         0.05 %  of all clauses
c walked:                        2     34784.00    interval
c 
c seconds are measured in process time for solving
c 
c --- [ resources ] ----------------------------------------------------------
c 
c total process time since initialization:        22.52    seconds
c total real time since initialization:           22.63    seconds
c maximum resident set size of process:          219.67    MB
c 
c --- [ shutting down ] ------------------------------------------------------
c 
c exit 20
